\ Model battery
\ LP format - for model browsing. Use MPS format to capture full model detail.
Minimize
  730 x0,0 + 3285 x0,1 + 7811 x0,2 + 4964 x0,3 + 3577 x0,4 + 4672 x0,5
   + 2701 x0,6 + 7008 x0,7 + 2701 x0,8 + 2555 x0,9 + 5694 x0,10
   + 1533 x0,11 + 4964 x0,12 + 4161 x0,13 + 14016 x0,14 + 12045 x0,15
   + 6351 x0,16 + 7008 x0,17 + 9636 x0,18 + 15914 x0,19 + 2993 x1,0
   + 730 x1,1 + 3577 x1,2 + 1606 x1,3 + 2920 x1,4 + 1679 x1,5 + 1387 x1,6
   + 5256 x1,7 + 3650 x1,8 + 2336 x1,9 + 2555 x1,10 + 2847 x1,11
   + 4088 x1,12 + 5548 x1,13 + 11826 x1,14 + 7811 x1,15 + 5694 x1,16
   + 5256 x1,17 + 7884 x1,18 + 10293 x1,19 + 7446 x2,0 + 3650 x2,1
   + 730 x2,2 + 2482 x2,3 + 4453 x2,4 + 3358 x2,5 + 6132 x2,6 + 4891 x2,7
   + 6497 x2,8 + 8103 x2,9 + 2993 x2,10 + 6351 x2,11 + 10001 x2,12
   + 8030 x2,13 + 9563 x2,14 + 3942 x2,15 + 7884 x2,16 + 7154 x2,17
   + 9782 x2,18 + 11680 x2,19 + 5694 x3,0 + 1606 x3,1 + 2482 x3,2
   + 730 x3,3 + 1971 x3,4 + 949 x3,5 + 1971 x3,6 + 3285 x3,7 + 4745 x3,8
   + 6351 x3,9 + 2993 x3,10 + 4599 x3,11 + 8249 x3,12 + 6278 x3,13
   + 11461 x3,14 + 6789 x3,15 + 5183 x3,16 + 4453 x3,17 + 7008 x3,18
   + 11461 x3,19 + 4161 x4,0 + 2628 x4,1 + 5110 x4,2 + 1971 x4,3 + 730 x4,4
   + 1679 x4,5 + 1314 x4,6 + 3796 x4,7 + 1679 x4,8 + 4818 x4,9 + 5329 x4,10
   + 3139 x4,11 + 6716 x4,12 + 3650 x4,13 + 10877 x4,14 + 5402 x4,15
   + 2847 x4,16 + 3869 x4,17 + 6424 x4,18 + 13286 x4,19 + 4745 x5,0
   + 1022 x5,1 + 3504 x5,2 + 1168 x5,3 + 1971 x5,4 + 730 x5,5 + 1022 x5,6
   + 4526 x5,7 + 3139 x5,8 + 2920 x5,9 + 2774 x5,10 + 2847 x5,11
   + 4599 x5,12 + 4818 x5,13 + 11534 x5,14 + 7738 x5,15 + 5256 x5,16
   + 4526 x5,17 + 7154 x5,18 + 10658 x5,19 + 2628 x6,0 + 1387 x6,1
   + 5767 x6,2 + 2920 x6,3 + 1533 x6,4 + 2628 x6,5 + 730 x6,6 + 4964 x6,7
   + 1314 x6,8 + 3285 x6,9 + 5913 x6,10 + 1606 x6,11 + 5183 x6,12
   + 4161 x6,13 + 11972 x6,14 + 10001 x6,15 + 4307 x6,16 + 4964 x6,17
   + 7519 x6,18 + 13870 x6,19 + 7081 x7,0 + 5621 x7,1 + 5329 x7,2
   + 3212 x7,3 + 3650 x7,4 + 4672 x7,5 + 5767 x7,6 + 730 x7,7 + 6132 x7,8
   + 7738 x7,9 + 5475 x7,10 + 5986 x7,11 + 9636 x7,12 + 4526 x7,13
   + 3869 x7,14 + 3431 x7,15 + 2847 x7,16 + 1460 x7,17 + 3139 x7,18
   + 13432 x7,19 + 2482 x8,0 + 3650 x8,1 + 6570 x8,2 + 3796 x8,3
   + 1825 x8,4 + 3431 x8,5 + 1679 x8,6 + 5767 x8,7 + 730 x8,8 + 3504 x8,9
   + 6716 x8,10 + 1606 x8,11 + 5402 x8,12 + 3723 x8,13 + 12775 x8,14
   + 10804 x8,15 + 3650 x8,16 + 5767 x8,17 + 8322 x8,18 + 14746 x8,19
   + 2628 x9,0 + 2336 x9,1 + 8176 x9,2 + 5329 x9,3 + 3942 x9,4 + 5037 x9,5
   + 3358 x9,6 + 7373 x9,7 + 3577 x9,8 + 730 x9,9 + 3358 x9,10 + 3869 x9,11
   + 2482 x9,12 + 6497 x9,13 + 14381 x9,14 + 12410 x9,15 + 6716 x9,16
   + 7373 x9,17 + 9928 x9,18 + 10658 x9,19 + 8322 x10,0 + 2555 x10,1
   + 2993 x10,2 + 3796 x10,3 + 7884 x10,4 + 3066 x10,5 + 7008 x10,6
   + 8103 x10,7 + 7373 x10,8 + 3358 x10,9 + 730 x10,10 + 7300 x10,11
   + 5037 x10,12 + 8979 x10,13 + 15111 x10,14 + 8322 x10,15 + 8760 x10,16
   + 8103 x10,17 + 10658 x10,18 + 9271 x10,19 + 1533 x11,0 + 3358 x11,1
   + 7373 x11,2 + 4526 x11,3 + 3139 x11,4 + 4234 x11,5 + 2336 x11,6
   + 6570 x11,7 + 2044 x11,8 + 3139 x11,9 + 7519 x11,10 + 730 x11,11
   + 5110 x11,12 + 4234 x11,13 + 13578 x11,14 + 11607 x11,15 + 5913 x11,16
   + 6570 x11,17 + 9125 x11,18 + 15476 x11,19 + 4526 x12,0 + 4015 x12,1
   + 10074 x12,2 + 7227 x12,3 + 5840 x12,4 + 6935 x12,5 + 5256 x12,6
   + 9271 x12,7 + 5475 x12,8 + 2555 x12,9 + 5037 x12,10 + 5767 x12,11
   + 730 x12,12 + 8468 x12,13 + 16279 x12,14 + 14308 x12,15 + 8614 x12,16
   + 9271 x12,17 + 11899 x12,18 + 8614 x12,19 + 4161 x13,0 + 5548 x13,1
   + 8249 x13,2 + 5402 x13,3 + 3577 x13,4 + 5110 x13,5 + 4453 x13,6
   + 4234 x13,7 + 3723 x13,8 + 6497 x13,9 + 8395 x13,10 + 4745 x13,11
   + 8395 x13,12 + 730 x13,13 + 10877 x13,14 + 12483 x13,15 + 2336 x13,16
   + 4234 x13,17 + 6862 x13,18 + 16352 x13,19 + 10512 x14,0 + 11242 x14,1
   + 9125 x14,2 + 10220 x14,3 + 7519 x14,4 + 8103 x14,5 + 9198 x14,6
   + 4380 x14,7 + 9563 x14,8 + 11169 x14,9 + 12118 x14,10 + 9490 x14,11
   + 13067 x14,12 + 7884 x14,13 + 730 x14,14 + 5548 x14,15 + 5767 x14,16
   + 3723 x14,17 + 2409 x14,18 + 15914 x14,19 + 11023 x15,0 + 7300 x15,1
   + 5110 x15,2 + 6205 x15,3 + 10585 x15,4 + 6935 x15,5 + 9709 x15,6
   + 3358 x15,7 + 10074 x15,8 + 11680 x15,9 + 8103 x15,10 + 9928 x15,11
   + 13578 x15,12 + 11607 x15,13 + 5767 x15,14 + 730 x15,15 + 6205 x15,16
   + 4818 x15,17 + 11169 x15,18 + 11972 x15,19 + 7300 x16,0 + 5840 x16,1
   + 7957 x16,2 + 5183 x16,3 + 2701 x16,4 + 4891 x16,5 + 4380 x16,6
   + 2774 x16,7 + 3358 x16,8 + 7957 x16,9 + 8103 x16,10 + 4672 x16,11
   + 9855 x16,12 + 2263 x16,13 + 5913 x16,14 + 6278 x16,15 + 730 x16,16
   + 1971 x16,17 + 4453 x16,18 + 16060 x16,19 + 6789 x17,0 + 5402 x17,1
   + 7446 x17,2 + 4672 x17,3 + 3869 x17,4 + 4380 x17,5 + 5475 x17,6
   + 1460 x17,7 + 5840 x17,8 + 7446 x17,9 + 7592 x17,10 + 5767 x17,11
   + 9344 x17,12 + 4307 x17,13 + 3869 x17,14 + 4818 x17,15 + 1971 x17,16
   + 730 x17,17 + 2409 x17,18 + 15549 x17,19 + 9417 x18,0 + 7957 x18,1
   + 10074 x18,2 + 7300 x18,3 + 6424 x18,4 + 7008 x18,5 + 8103 x18,6
   + 3066 x18,7 + 8468 x18,8 + 10074 x18,9 + 10220 x18,10 + 8322 x18,11
   + 11972 x18,12 + 6862 x18,13 + 2628 x18,14 + 10366 x18,15 + 4453 x18,16
   + 2409 x18,17 + 730 x18,18 + 18177 x18,19 + 15184 x19,0 + 9782 x19,1
   + 11753 x19,2 + 10658 x19,3 + 14746 x19,4 + 11315 x19,5 + 13870 x19,6
   + 14965 x19,7 + 14308 x19,8 + 10220 x19,9 + 8614 x19,10 + 14162 x19,11
   + 8468 x19,12 + 15841 x19,13 + 15914 x19,14 + 11972 x19,15
   + 15695 x19,16 + 14965 x19,17 + 17593 x19,18 + 730 x19,19 + 4350 y0
   + 4350 y1 + 4350 y2 + 4350 y3 + 4350 y4 + 4350 y5 + 4350 y6 + 4350 y7
   + 4350 y8 + 4350 y9 + 4350 y10 + 4350 y11 + 4350 y12 + 4350 y13
   + 4350 y14 + 4350 y15 + 4350 y16 + 4350 y17 + 4350 y18 + 4350 y19
   + 0.1 z0 + 0.1 z1 + 0.1 z2 + 0.1 z3 + 0.1 z4 + 0.1 z5 + 0.1 z6 + 0.1 z7
   + 0.1 z8 + 0.1 z9 + 0.1 z10 + 0.1 z11 + 0.1 z12 + 0.1 z13 + 0.1 z14
   + 0.1 z15 + 0.1 z16 + 0.1 z17 + 0.1 z18 + 0.1 z19
Subject To
 rowA0: 1927.606876712329 x0,0 + 1927.606876712329 x0,1
   + 1927.606876712329 x0,2 + 1927.606876712329 x0,3
   + 1927.606876712329 x0,4 + 1927.606876712329 x0,5
   + 1927.606876712329 x0,6 + 1927.606876712329 x0,7
   + 1927.606876712329 x0,8 + 1927.606876712329 x0,9
   + 1927.606876712329 x0,10 + 1927.606876712329 x0,11
   + 1927.606876712329 x0,12 + 1927.606876712329 x0,13
   + 1927.606876712329 x0,14 + 1927.606876712329 x0,15
   + 1927.606876712329 x0,16 + 1927.606876712329 x0,17
   + 1927.606876712329 x0,18 + 1927.606876712329 x0,19 - z0 = 0
 rowA1: 2646.900356164384 x1,0 + 2646.900356164384 x1,1
   + 2646.900356164384 x1,2 + 2646.900356164384 x1,3
   + 2646.900356164384 x1,4 + 2646.900356164384 x1,5
   + 2646.900356164384 x1,6 + 2646.900356164384 x1,7
   + 2646.900356164384 x1,8 + 2646.900356164384 x1,9
   + 2646.900356164384 x1,10 + 2646.900356164384 x1,11
   + 2646.900356164384 x1,12 + 2646.900356164384 x1,13
   + 2646.900356164384 x1,14 + 2646.900356164384 x1,15
   + 2646.900356164384 x1,16 + 2646.900356164384 x1,17
   + 2646.900356164384 x1,18 + 2646.900356164384 x1,19 - z1 = 0
 rowA2: 138.1778904109589 x2,0 + 138.1778904109589 x2,1
   + 138.1778904109589 x2,2 + 138.1778904109589 x2,3
   + 138.1778904109589 x2,4 + 138.1778904109589 x2,5
   + 138.1778904109589 x2,6 + 138.1778904109589 x2,7
   + 138.1778904109589 x2,8 + 138.1778904109589 x2,9
   + 138.1778904109589 x2,10 + 138.1778904109589 x2,11
   + 138.1778904109589 x2,12 + 138.1778904109589 x2,13
   + 138.1778904109589 x2,14 + 138.1778904109589 x2,15
   + 138.1778904109589 x2,16 + 138.1778904109589 x2,17
   + 138.1778904109589 x2,18 + 138.1778904109589 x2,19 - z2 = 0
 rowA3: 1855.302547945206 x3,0 + 1855.302547945206 x3,1
   + 1855.302547945206 x3,2 + 1855.302547945206 x3,3
   + 1855.302547945206 x3,4 + 1855.302547945206 x3,5
   + 1855.302547945206 x3,6 + 1855.302547945206 x3,7
   + 1855.302547945206 x3,8 + 1855.302547945206 x3,9
   + 1855.302547945206 x3,10 + 1855.302547945206 x3,11
   + 1855.302547945206 x3,12 + 1855.302547945206 x3,13
   + 1855.302547945206 x3,14 + 1855.302547945206 x3,15
   + 1855.302547945206 x3,16 + 1855.302547945206 x3,17
   + 1855.302547945206 x3,18 + 1855.302547945206 x3,19 - z3 = 0
 rowA4: 189.4280273972603 x4,0 + 189.4280273972603 x4,1
   + 189.4280273972603 x4,2 + 189.4280273972603 x4,3
   + 189.4280273972603 x4,4 + 189.4280273972603 x4,5
   + 189.4280273972603 x4,6 + 189.4280273972603 x4,7
   + 189.4280273972603 x4,8 + 189.4280273972603 x4,9
   + 189.4280273972603 x4,10 + 189.4280273972603 x4,11
   + 189.4280273972603 x4,12 + 189.4280273972603 x4,13
   + 189.4280273972603 x4,14 + 189.4280273972603 x4,15
   + 189.4280273972603 x4,16 + 189.4280273972603 x4,17
   + 189.4280273972603 x4,18 + 189.4280273972603 x4,19 - z4 = 0
 rowA5: 1209.502246575342 x5,0 + 1209.502246575342 x5,1
   + 1209.502246575342 x5,2 + 1209.502246575342 x5,3
   + 1209.502246575342 x5,4 + 1209.502246575342 x5,5
   + 1209.502246575342 x5,6 + 1209.502246575342 x5,7
   + 1209.502246575342 x5,8 + 1209.502246575342 x5,9
   + 1209.502246575342 x5,10 + 1209.502246575342 x5,11
   + 1209.502246575342 x5,12 + 1209.502246575342 x5,13
   + 1209.502246575342 x5,14 + 1209.502246575342 x5,15
   + 1209.502246575342 x5,16 + 1209.502246575342 x5,17
   + 1209.502246575342 x5,18 + 1209.502246575342 x5,19 - z5 = 0
 rowA6: 824.3543835616439 x6,0 + 824.3543835616439 x6,1
   + 824.3543835616439 x6,2 + 824.3543835616439 x6,3
   + 824.3543835616439 x6,4 + 824.3543835616439 x6,5
   + 824.3543835616439 x6,6 + 824.3543835616439 x6,7
   + 824.3543835616439 x6,8 + 824.3543835616439 x6,9
   + 824.3543835616439 x6,10 + 824.3543835616439 x6,11
   + 824.3543835616439 x6,12 + 824.3543835616439 x6,13
   + 824.3543835616439 x6,14 + 824.3543835616439 x6,15
   + 824.3543835616439 x6,16 + 824.3543835616439 x6,17
   + 824.3543835616439 x6,18 + 824.3543835616439 x6,19 - z6 = 0
 rowA7: 522.9745753424658 x7,0 + 522.9745753424658 x7,1
   + 522.9745753424658 x7,2 + 522.9745753424658 x7,3
   + 522.9745753424658 x7,4 + 522.9745753424658 x7,5
   + 522.9745753424658 x7,6 + 522.9745753424658 x7,7
   + 522.9745753424658 x7,8 + 522.9745753424658 x7,9
   + 522.9745753424658 x7,10 + 522.9745753424658 x7,11
   + 522.9745753424658 x7,12 + 522.9745753424658 x7,13
   + 522.9745753424658 x7,14 + 522.9745753424658 x7,15
   + 522.9745753424658 x7,16 + 522.9745753424658 x7,17
   + 522.9745753424658 x7,18 + 522.9745753424658 x7,19 - z7 = 0
 rowA8: 86.83802739726028 x8,0 + 86.83802739726028 x8,1
   + 86.83802739726028 x8,2 + 86.83802739726028 x8,3
   + 86.83802739726028 x8,4 + 86.83802739726028 x8,5
   + 86.83802739726028 x8,6 + 86.83802739726028 x8,7
   + 86.83802739726028 x8,8 + 86.83802739726028 x8,9
   + 86.83802739726028 x8,10 + 86.83802739726028 x8,11
   + 86.83802739726028 x8,12 + 86.83802739726028 x8,13
   + 86.83802739726028 x8,14 + 86.83802739726028 x8,15
   + 86.83802739726028 x8,16 + 86.83802739726028 x8,17
   + 86.83802739726028 x8,18 + 86.83802739726028 x8,19 - z8 = 0
 rowA9: 167.896301369863 x9,0 + 167.896301369863 x9,1
   + 167.896301369863 x9,2 + 167.896301369863 x9,3 + 167.896301369863 x9,4
   + 167.896301369863 x9,5 + 167.896301369863 x9,6 + 167.896301369863 x9,7
   + 167.896301369863 x9,8 + 167.896301369863 x9,9 + 167.896301369863 x9,10
   + 167.896301369863 x9,11 + 167.896301369863 x9,12
   + 167.896301369863 x9,13 + 167.896301369863 x9,14
   + 167.896301369863 x9,15 + 167.896301369863 x9,16
   + 167.896301369863 x9,17 + 167.896301369863 x9,18
   + 167.896301369863 x9,19 - z9 = 0
 rowA10: 68.45583561643836 x10,0 + 68.45583561643836 x10,1
   + 68.45583561643836 x10,2 + 68.45583561643836 x10,3
   + 68.45583561643836 x10,4 + 68.45583561643836 x10,5
   + 68.45583561643836 x10,6 + 68.45583561643836 x10,7
   + 68.45583561643836 x10,8 + 68.45583561643836 x10,9
   + 68.45583561643836 x10,10 + 68.45583561643836 x10,11
   + 68.45583561643836 x10,12 + 68.45583561643836 x10,13
   + 68.45583561643836 x10,14 + 68.45583561643836 x10,15
   + 68.45583561643836 x10,16 + 68.45583561643836 x10,17
   + 68.45583561643836 x10,18 + 68.45583561643836 x10,19 - z10 = 0
 rowA11: 150.6895890410959 x11,0 + 150.6895890410959 x11,1
   + 150.6895890410959 x11,2 + 150.6895890410959 x11,3
   + 150.6895890410959 x11,4 + 150.6895890410959 x11,5
   + 150.6895890410959 x11,6 + 150.6895890410959 x11,7
   + 150.6895890410959 x11,8 + 150.6895890410959 x11,9
   + 150.6895890410959 x11,10 + 150.6895890410959 x11,11
   + 150.6895890410959 x11,12 + 150.6895890410959 x11,13
   + 150.6895890410959 x11,14 + 150.6895890410959 x11,15
   + 150.6895890410959 x11,16 + 150.6895890410959 x11,17
   + 150.6895890410959 x11,18 + 150.6895890410959 x11,19 - z11 = 0
 rowA12: 29.87734246575342 x12,0 + 29.87734246575342 x12,1
   + 29.87734246575342 x12,2 + 29.87734246575342 x12,3
   + 29.87734246575342 x12,4 + 29.87734246575342 x12,5
   + 29.87734246575342 x12,6 + 29.87734246575342 x12,7
   + 29.87734246575342 x12,8 + 29.87734246575342 x12,9
   + 29.87734246575342 x12,10 + 29.87734246575342 x12,11
   + 29.87734246575342 x12,12 + 29.87734246575342 x12,13
   + 29.87734246575342 x12,14 + 29.87734246575342 x12,15
   + 29.87734246575342 x12,16 + 29.87734246575342 x12,17
   + 29.87734246575342 x12,18 + 29.87734246575342 x12,19 - z12 = 0
 rowA13: 7.909287671232876 x13,0 + 7.909287671232876 x13,1
   + 7.909287671232876 x13,2 + 7.909287671232876 x13,3
   + 7.909287671232876 x13,4 + 7.909287671232876 x13,5
   + 7.909287671232876 x13,6 + 7.909287671232876 x13,7
   + 7.909287671232876 x13,8 + 7.909287671232876 x13,9
   + 7.909287671232876 x13,10 + 7.909287671232876 x13,11
   + 7.909287671232876 x13,12 + 7.909287671232876 x13,13
   + 7.909287671232876 x13,14 + 7.909287671232876 x13,15
   + 7.909287671232876 x13,16 + 7.909287671232876 x13,17
   + 7.909287671232876 x13,18 + 7.909287671232876 x13,19 - z13 = 0
 rowA14: 43.68172602739726 x14,0 + 43.68172602739726 x14,1
   + 43.68172602739726 x14,2 + 43.68172602739726 x14,3
   + 43.68172602739726 x14,4 + 43.68172602739726 x14,5
   + 43.68172602739726 x14,6 + 43.68172602739726 x14,7
   + 43.68172602739726 x14,8 + 43.68172602739726 x14,9
   + 43.68172602739726 x14,10 + 43.68172602739726 x14,11
   + 43.68172602739726 x14,12 + 43.68172602739726 x14,13
   + 43.68172602739726 x14,14 + 43.68172602739726 x14,15
   + 43.68172602739726 x14,16 + 43.68172602739726 x14,17
   + 43.68172602739726 x14,18 + 43.68172602739726 x14,19 - z14 = 0
 rowA15: 55.73734246575343 x15,0 + 55.73734246575343 x15,1
   + 55.73734246575343 x15,2 + 55.73734246575343 x15,3
   + 55.73734246575343 x15,4 + 55.73734246575343 x15,5
   + 55.73734246575343 x15,6 + 55.73734246575343 x15,7
   + 55.73734246575343 x15,8 + 55.73734246575343 x15,9
   + 55.73734246575343 x15,10 + 55.73734246575343 x15,11
   + 55.73734246575343 x15,12 + 55.73734246575343 x15,13
   + 55.73734246575343 x15,14 + 55.73734246575343 x15,15
   + 55.73734246575343 x15,16 + 55.73734246575343 x15,17
   + 55.73734246575343 x15,18 + 55.73734246575343 x15,19 - z15 = 0
 rowA16: 34.20041095890411 x16,0 + 34.20041095890411 x16,1
   + 34.20041095890411 x16,2 + 34.20041095890411 x16,3
   + 34.20041095890411 x16,4 + 34.20041095890411 x16,5
   + 34.20041095890411 x16,6 + 34.20041095890411 x16,7
   + 34.20041095890411 x16,8 + 34.20041095890411 x16,9
   + 34.20041095890411 x16,10 + 34.20041095890411 x16,11
   + 34.20041095890411 x16,12 + 34.20041095890411 x16,13
   + 34.20041095890411 x16,14 + 34.20041095890411 x16,15
   + 34.20041095890411 x16,16 + 34.20041095890411 x16,17
   + 34.20041095890411 x16,18 + 34.20041095890411 x16,19 - z16 = 0
 rowA17: 2.104684931506849 x17,0 + 2.104684931506849 x17,1
   + 2.104684931506849 x17,2 + 2.104684931506849 x17,3
   + 2.104684931506849 x17,4 + 2.104684931506849 x17,5
   + 2.104684931506849 x17,6 + 2.104684931506849 x17,7
   + 2.104684931506849 x17,8 + 2.104684931506849 x17,9
   + 2.104684931506849 x17,10 + 2.104684931506849 x17,11
   + 2.104684931506849 x17,12 + 2.104684931506849 x17,13
   + 2.104684931506849 x17,14 + 2.104684931506849 x17,15
   + 2.104684931506849 x17,16 + 2.104684931506849 x17,17
   + 2.104684931506849 x17,18 + 2.104684931506849 x17,19 - z17 = 0
 rowA18: 2.181068493150685 x18,0 + 2.181068493150685 x18,1
   + 2.181068493150685 x18,2 + 2.181068493150685 x18,3
   + 2.181068493150685 x18,4 + 2.181068493150685 x18,5
   + 2.181068493150685 x18,6 + 2.181068493150685 x18,7
   + 2.181068493150685 x18,8 + 2.181068493150685 x18,9
   + 2.181068493150685 x18,10 + 2.181068493150685 x18,11
   + 2.181068493150685 x18,12 + 2.181068493150685 x18,13
   + 2.181068493150685 x18,14 + 2.181068493150685 x18,15
   + 2.181068493150685 x18,16 + 2.181068493150685 x18,17
   + 2.181068493150685 x18,18 + 2.181068493150685 x18,19 - z18 = 0
 rowA19: 0.0983013698630137 x19,0 + 0.0983013698630137 x19,1
   + 0.0983013698630137 x19,2 + 0.0983013698630137 x19,3
   + 0.0983013698630137 x19,4 + 0.0983013698630137 x19,5
   + 0.0983013698630137 x19,6 + 0.0983013698630137 x19,7
   + 0.0983013698630137 x19,8 + 0.0983013698630137 x19,9
   + 0.0983013698630137 x19,10 + 0.0983013698630137 x19,11
   + 0.0983013698630137 x19,12 + 0.0983013698630137 x19,13
   + 0.0983013698630137 x19,14 + 0.0983013698630137 x19,15
   + 0.0983013698630137 x19,16 + 0.0983013698630137 x19,17
   + 0.0983013698630137 x19,18 + 0.0983013698630137 x19,19 - z19 = 0
 rowA20: x0,0 + x1,0 + x2,0 + x3,0 + x4,0 + x5,0 + x6,0 + x7,0 + x8,0
   + x9,0 + x10,0 + x11,0 + x12,0 + x13,0 + x14,0 + x15,0 + x16,0 + x17,0
   + x18,0 + x19,0 = 1
 rowA21: x0,1 + x1,1 + x2,1 + x3,1 + x4,1 + x5,1 + x6,1 + x7,1 + x8,1
   + x9,1 + x10,1 + x11,1 + x12,1 + x13,1 + x14,1 + x15,1 + x16,1 + x17,1
   + x18,1 + x19,1 = 1
 rowA22: x0,2 + x1,2 + x2,2 + x3,2 + x4,2 + x5,2 + x6,2 + x7,2 + x8,2
   + x9,2 + x10,2 + x11,2 + x12,2 + x13,2 + x14,2 + x15,2 + x16,2 + x17,2
   + x18,2 + x19,2 = 1
 rowA23: x0,3 + x1,3 + x2,3 + x3,3 + x4,3 + x5,3 + x6,3 + x7,3 + x8,3
   + x9,3 + x10,3 + x11,3 + x12,3 + x13,3 + x14,3 + x15,3 + x16,3 + x17,3
   + x18,3 + x19,3 = 1
 rowA24: x0,4 + x1,4 + x2,4 + x3,4 + x4,4 + x5,4 + x6,4 + x7,4 + x8,4
   + x9,4 + x10,4 + x11,4 + x12,4 + x13,4 + x14,4 + x15,4 + x16,4 + x17,4
   + x18,4 + x19,4 = 1
 rowA25: x0,5 + x1,5 + x2,5 + x3,5 + x4,5 + x5,5 + x6,5 + x7,5 + x8,5
   + x9,5 + x10,5 + x11,5 + x12,5 + x13,5 + x14,5 + x15,5 + x16,5 + x17,5
   + x18,5 + x19,5 = 1
 rowA26: x0,6 + x1,6 + x2,6 + x3,6 + x4,6 + x5,6 + x6,6 + x7,6 + x8,6
   + x9,6 + x10,6 + x11,6 + x12,6 + x13,6 + x14,6 + x15,6 + x16,6 + x17,6
   + x18,6 + x19,6 = 1
 rowA27: x0,7 + x1,7 + x2,7 + x3,7 + x4,7 + x5,7 + x6,7 + x7,7 + x8,7
   + x9,7 + x10,7 + x11,7 + x12,7 + x13,7 + x14,7 + x15,7 + x16,7 + x17,7
   + x18,7 + x19,7 = 1
 rowA28: x0,8 + x1,8 + x2,8 + x3,8 + x4,8 + x5,8 + x6,8 + x7,8 + x8,8
   + x9,8 + x10,8 + x11,8 + x12,8 + x13,8 + x14,8 + x15,8 + x16,8 + x17,8
   + x18,8 + x19,8 = 1
 rowA29: x0,9 + x1,9 + x2,9 + x3,9 + x4,9 + x5,9 + x6,9 + x7,9 + x8,9
   + x9,9 + x10,9 + x11,9 + x12,9 + x13,9 + x14,9 + x15,9 + x16,9 + x17,9
   + x18,9 + x19,9 = 1
 rowA30: x0,10 + x1,10 + x2,10 + x3,10 + x4,10 + x5,10 + x6,10 + x7,10
   + x8,10 + x9,10 + x10,10 + x11,10 + x12,10 + x13,10 + x14,10 + x15,10
   + x16,10 + x17,10 + x18,10 + x19,10 = 1
 rowA31: x0,11 + x1,11 + x2,11 + x3,11 + x4,11 + x5,11 + x6,11 + x7,11
   + x8,11 + x9,11 + x10,11 + x11,11 + x12,11 + x13,11 + x14,11 + x15,11
   + x16,11 + x17,11 + x18,11 + x19,11 = 1
 rowA32: x0,12 + x1,12 + x2,12 + x3,12 + x4,12 + x5,12 + x6,12 + x7,12
   + x8,12 + x9,12 + x10,12 + x11,12 + x12,12 + x13,12 + x14,12 + x15,12
   + x16,12 + x17,12 + x18,12 + x19,12 = 1
 rowA33: x0,13 + x1,13 + x2,13 + x3,13 + x4,13 + x5,13 + x6,13 + x7,13
   + x8,13 + x9,13 + x10,13 + x11,13 + x12,13 + x13,13 + x14,13 + x15,13
   + x16,13 + x17,13 + x18,13 + x19,13 = 1
 rowA34: x0,14 + x1,14 + x2,14 + x3,14 + x4,14 + x5,14 + x6,14 + x7,14
   + x8,14 + x9,14 + x10,14 + x11,14 + x12,14 + x13,14 + x14,14 + x15,14
   + x16,14 + x17,14 + x18,14 + x19,14 = 1
 rowA35: x0,15 + x1,15 + x2,15 + x3,15 + x4,15 + x5,15 + x6,15 + x7,15
   + x8,15 + x9,15 + x10,15 + x11,15 + x12,15 + x13,15 + x14,15 + x15,15
   + x16,15 + x17,15 + x18,15 + x19,15 = 1
 rowA36: x0,16 + x1,16 + x2,16 + x3,16 + x4,16 + x5,16 + x6,16 + x7,16
   + x8,16 + x9,16 + x10,16 + x11,16 + x12,16 + x13,16 + x14,16 + x15,16
   + x16,16 + x17,16 + x18,16 + x19,16 = 1
 rowA37: x0,17 + x1,17 + x2,17 + x3,17 + x4,17 + x5,17 + x6,17 + x7,17
   + x8,17 + x9,17 + x10,17 + x11,17 + x12,17 + x13,17 + x14,17 + x15,17
   + x16,17 + x17,17 + x18,17 + x19,17 = 1
 rowA38: x0,18 + x1,18 + x2,18 + x3,18 + x4,18 + x5,18 + x6,18 + x7,18
   + x8,18 + x9,18 + x10,18 + x11,18 + x12,18 + x13,18 + x14,18 + x15,18
   + x16,18 + x17,18 + x18,18 + x19,18 = 1
 rowA39: x0,19 + x1,19 + x2,19 + x3,19 + x4,19 + x5,19 + x6,19 + x7,19
   + x8,19 + x9,19 + x10,19 + x11,19 + x12,19 + x13,19 + x14,19 + x15,19
   + x16,19 + x17,19 + x18,19 + x19,19 = 1
 rowB0: z0 <= 1000
 rowB1: z1 <= 1000
 rowB2: z2 <= 1000
 rowB3: z3 <= 1000
 rowB4: z4 <= 1000
 rowB5: z5 <= 1000
 rowB6: z6 <= 1000
 rowB7: z7 <= 1000
 rowB8: z8 <= 1000
 rowB9: z9 <= 1000
 rowB10: z10 <= 1000
 rowB11: z11 <= 1000
 rowB12: z12 <= 1000
 rowB13: z13 <= 1000
 rowB14: z14 <= 1000
 rowB15: z15 <= 1000
 rowB16: z16 <= 1000
 rowB17: z17 <= 1000
 rowB18: z18 <= 1000
 rowB19: z19 <= 1000
 rowB20: x0,0 - y0 <= 0
 rowB21: x0,1 - y0 <= 0
 rowB22: x0,2 - y0 <= 0
 rowB23: x0,3 - y0 <= 0
 rowB24: x0,4 - y0 <= 0
 rowB25: x0,5 - y0 <= 0
 rowB26: x0,6 - y0 <= 0
 rowB27: x0,7 - y0 <= 0
 rowB28: x0,8 - y0 <= 0
 rowB29: x0,9 - y0 <= 0
 rowB30: x0,10 - y0 <= 0
 rowB31: x0,11 - y0 <= 0
 rowB32: x0,12 - y0 <= 0
 rowB33: x0,13 - y0 <= 0
 rowB34: x0,14 - y0 <= 0
 rowB35: x0,15 - y0 <= 0
 rowB36: x0,16 - y0 <= 0
 rowB37: x0,17 - y0 <= 0
 rowB38: x0,18 - y0 <= 0
 rowB39: x0,19 - y0 <= 0
 rowB40: x1,0 - y1 <= 0
 rowB41: x1,1 - y1 <= 0
 rowB42: x1,2 - y1 <= 0
 rowB43: x1,3 - y1 <= 0
 rowB44: x1,4 - y1 <= 0
 rowB45: x1,5 - y1 <= 0
 rowB46: x1,6 - y1 <= 0
 rowB47: x1,7 - y1 <= 0
 rowB48: x1,8 - y1 <= 0
 rowB49: x1,9 - y1 <= 0
 rowB50: x1,10 - y1 <= 0
 rowB51: x1,11 - y1 <= 0
 rowB52: x1,12 - y1 <= 0
 rowB53: x1,13 - y1 <= 0
 rowB54: x1,14 - y1 <= 0
 rowB55: x1,15 - y1 <= 0
 rowB56: x1,16 - y1 <= 0
 rowB57: x1,17 - y1 <= 0
 rowB58: x1,18 - y1 <= 0
 rowB59: x1,19 - y1 <= 0
 rowB60: x2,0 - y2 <= 0
 rowB61: x2,1 - y2 <= 0
 rowB62: x2,2 - y2 <= 0
 rowB63: x2,3 - y2 <= 0
 rowB64: x2,4 - y2 <= 0
 rowB65: x2,5 - y2 <= 0
 rowB66: x2,6 - y2 <= 0
 rowB67: x2,7 - y2 <= 0
 rowB68: x2,8 - y2 <= 0
 rowB69: x2,9 - y2 <= 0
 rowB70: x2,10 - y2 <= 0
 rowB71: x2,11 - y2 <= 0
 rowB72: x2,12 - y2 <= 0
 rowB73: x2,13 - y2 <= 0
 rowB74: x2,14 - y2 <= 0
 rowB75: x2,15 - y2 <= 0
 rowB76: x2,16 - y2 <= 0
 rowB77: x2,17 - y2 <= 0
 rowB78: x2,18 - y2 <= 0
 rowB79: x2,19 - y2 <= 0
 rowB80: x3,0 - y3 <= 0
 rowB81: x3,1 - y3 <= 0
 rowB82: x3,2 - y3 <= 0
 rowB83: x3,3 - y3 <= 0
 rowB84: x3,4 - y3 <= 0
 rowB85: x3,5 - y3 <= 0
 rowB86: x3,6 - y3 <= 0
 rowB87: x3,7 - y3 <= 0
 rowB88: x3,8 - y3 <= 0
 rowB89: x3,9 - y3 <= 0
 rowB90: x3,10 - y3 <= 0
 rowB91: x3,11 - y3 <= 0
 rowB92: x3,12 - y3 <= 0
 rowB93: x3,13 - y3 <= 0
 rowB94: x3,14 - y3 <= 0
 rowB95: x3,15 - y3 <= 0
 rowB96: x3,16 - y3 <= 0
 rowB97: x3,17 - y3 <= 0
 rowB98: x3,18 - y3 <= 0
 rowB99: x3,19 - y3 <= 0
 rowB100: x4,0 - y4 <= 0
 rowB101: x4,1 - y4 <= 0
 rowB102: x4,2 - y4 <= 0
 rowB103: x4,3 - y4 <= 0
 rowB104: x4,4 - y4 <= 0
 rowB105: x4,5 - y4 <= 0
 rowB106: x4,6 - y4 <= 0
 rowB107: x4,7 - y4 <= 0
 rowB108: x4,8 - y4 <= 0
 rowB109: x4,9 - y4 <= 0
 rowB110: x4,10 - y4 <= 0
 rowB111: x4,11 - y4 <= 0
 rowB112: x4,12 - y4 <= 0
 rowB113: x4,13 - y4 <= 0
 rowB114: x4,14 - y4 <= 0
 rowB115: x4,15 - y4 <= 0
 rowB116: x4,16 - y4 <= 0
 rowB117: x4,17 - y4 <= 0
 rowB118: x4,18 - y4 <= 0
 rowB119: x4,19 - y4 <= 0
 rowB120: x5,0 - y5 <= 0
 rowB121: x5,1 - y5 <= 0
 rowB122: x5,2 - y5 <= 0
 rowB123: x5,3 - y5 <= 0
 rowB124: x5,4 - y5 <= 0
 rowB125: x5,5 - y5 <= 0
 rowB126: x5,6 - y5 <= 0
 rowB127: x5,7 - y5 <= 0
 rowB128: x5,8 - y5 <= 0
 rowB129: x5,9 - y5 <= 0
 rowB130: x5,10 - y5 <= 0
 rowB131: x5,11 - y5 <= 0
 rowB132: x5,12 - y5 <= 0
 rowB133: x5,13 - y5 <= 0
 rowB134: x5,14 - y5 <= 0
 rowB135: x5,15 - y5 <= 0
 rowB136: x5,16 - y5 <= 0
 rowB137: x5,17 - y5 <= 0
 rowB138: x5,18 - y5 <= 0
 rowB139: x5,19 - y5 <= 0
 rowB140: x6,0 - y6 <= 0
 rowB141: x6,1 - y6 <= 0
 rowB142: x6,2 - y6 <= 0
 rowB143: x6,3 - y6 <= 0
 rowB144: x6,4 - y6 <= 0
 rowB145: x6,5 - y6 <= 0
 rowB146: x6,6 - y6 <= 0
 rowB147: x6,7 - y6 <= 0
 rowB148: x6,8 - y6 <= 0
 rowB149: x6,9 - y6 <= 0
 rowB150: x6,10 - y6 <= 0
 rowB151: x6,11 - y6 <= 0
 rowB152: x6,12 - y6 <= 0
 rowB153: x6,13 - y6 <= 0
 rowB154: x6,14 - y6 <= 0
 rowB155: x6,15 - y6 <= 0
 rowB156: x6,16 - y6 <= 0
 rowB157: x6,17 - y6 <= 0
 rowB158: x6,18 - y6 <= 0
 rowB159: x6,19 - y6 <= 0
 rowB160: x7,0 - y7 <= 0
 rowB161: x7,1 - y7 <= 0
 rowB162: x7,2 - y7 <= 0
 rowB163: x7,3 - y7 <= 0
 rowB164: x7,4 - y7 <= 0
 rowB165: x7,5 - y7 <= 0
 rowB166: x7,6 - y7 <= 0
 rowB167: x7,7 - y7 <= 0
 rowB168: x7,8 - y7 <= 0
 rowB169: x7,9 - y7 <= 0
 rowB170: x7,10 - y7 <= 0
 rowB171: x7,11 - y7 <= 0
 rowB172: x7,12 - y7 <= 0
 rowB173: x7,13 - y7 <= 0
 rowB174: x7,14 - y7 <= 0
 rowB175: x7,15 - y7 <= 0
 rowB176: x7,16 - y7 <= 0
 rowB177: x7,17 - y7 <= 0
 rowB178: x7,18 - y7 <= 0
 rowB179: x7,19 - y7 <= 0
 rowB180: x8,0 - y8 <= 0
 rowB181: x8,1 - y8 <= 0
 rowB182: x8,2 - y8 <= 0
 rowB183: x8,3 - y8 <= 0
 rowB184: x8,4 - y8 <= 0
 rowB185: x8,5 - y8 <= 0
 rowB186: x8,6 - y8 <= 0
 rowB187: x8,7 - y8 <= 0
 rowB188: x8,8 - y8 <= 0
 rowB189: x8,9 - y8 <= 0
 rowB190: x8,10 - y8 <= 0
 rowB191: x8,11 - y8 <= 0
 rowB192: x8,12 - y8 <= 0
 rowB193: x8,13 - y8 <= 0
 rowB194: x8,14 - y8 <= 0
 rowB195: x8,15 - y8 <= 0
 rowB196: x8,16 - y8 <= 0
 rowB197: x8,17 - y8 <= 0
 rowB198: x8,18 - y8 <= 0
 rowB199: x8,19 - y8 <= 0
 rowB200: x9,0 - y9 <= 0
 rowB201: x9,1 - y9 <= 0
 rowB202: x9,2 - y9 <= 0
 rowB203: x9,3 - y9 <= 0
 rowB204: x9,4 - y9 <= 0
 rowB205: x9,5 - y9 <= 0
 rowB206: x9,6 - y9 <= 0
 rowB207: x9,7 - y9 <= 0
 rowB208: x9,8 - y9 <= 0
 rowB209: x9,9 - y9 <= 0
 rowB210: x9,10 - y9 <= 0
 rowB211: x9,11 - y9 <= 0
 rowB212: x9,12 - y9 <= 0
 rowB213: x9,13 - y9 <= 0
 rowB214: x9,14 - y9 <= 0
 rowB215: x9,15 - y9 <= 0
 rowB216: x9,16 - y9 <= 0
 rowB217: x9,17 - y9 <= 0
 rowB218: x9,18 - y9 <= 0
 rowB219: x9,19 - y9 <= 0
 rowB220: x10,0 - y10 <= 0
 rowB221: x10,1 - y10 <= 0
 rowB222: x10,2 - y10 <= 0
 rowB223: x10,3 - y10 <= 0
 rowB224: x10,4 - y10 <= 0
 rowB225: x10,5 - y10 <= 0
 rowB226: x10,6 - y10 <= 0
 rowB227: x10,7 - y10 <= 0
 rowB228: x10,8 - y10 <= 0
 rowB229: x10,9 - y10 <= 0
 rowB230: x10,10 - y10 <= 0
 rowB231: x10,11 - y10 <= 0
 rowB232: x10,12 - y10 <= 0
 rowB233: x10,13 - y10 <= 0
 rowB234: x10,14 - y10 <= 0
 rowB235: x10,15 - y10 <= 0
 rowB236: x10,16 - y10 <= 0
 rowB237: x10,17 - y10 <= 0
 rowB238: x10,18 - y10 <= 0
 rowB239: x10,19 - y10 <= 0
 rowB240: x11,0 - y11 <= 0
 rowB241: x11,1 - y11 <= 0
 rowB242: x11,2 - y11 <= 0
 rowB243: x11,3 - y11 <= 0
 rowB244: x11,4 - y11 <= 0
 rowB245: x11,5 - y11 <= 0
 rowB246: x11,6 - y11 <= 0
 rowB247: x11,7 - y11 <= 0
 rowB248: x11,8 - y11 <= 0
 rowB249: x11,9 - y11 <= 0
 rowB250: x11,10 - y11 <= 0
 rowB251: x11,11 - y11 <= 0
 rowB252: x11,12 - y11 <= 0
 rowB253: x11,13 - y11 <= 0
 rowB254: x11,14 - y11 <= 0
 rowB255: x11,15 - y11 <= 0
 rowB256: x11,16 - y11 <= 0
 rowB257: x11,17 - y11 <= 0
 rowB258: x11,18 - y11 <= 0
 rowB259: x11,19 - y11 <= 0
 rowB260: x12,0 - y12 <= 0
 rowB261: x12,1 - y12 <= 0
 rowB262: x12,2 - y12 <= 0
 rowB263: x12,3 - y12 <= 0
 rowB264: x12,4 - y12 <= 0
 rowB265: x12,5 - y12 <= 0
 rowB266: x12,6 - y12 <= 0
 rowB267: x12,7 - y12 <= 0
 rowB268: x12,8 - y12 <= 0
 rowB269: x12,9 - y12 <= 0
 rowB270: x12,10 - y12 <= 0
 rowB271: x12,11 - y12 <= 0
 rowB272: x12,12 - y12 <= 0
 rowB273: x12,13 - y12 <= 0
 rowB274: x12,14 - y12 <= 0
 rowB275: x12,15 - y12 <= 0
 rowB276: x12,16 - y12 <= 0
 rowB277: x12,17 - y12 <= 0
 rowB278: x12,18 - y12 <= 0
 rowB279: x12,19 - y12 <= 0
 rowB280: x13,0 - y13 <= 0
 rowB281: x13,1 - y13 <= 0
 rowB282: x13,2 - y13 <= 0
 rowB283: x13,3 - y13 <= 0
 rowB284: x13,4 - y13 <= 0
 rowB285: x13,5 - y13 <= 0
 rowB286: x13,6 - y13 <= 0
 rowB287: x13,7 - y13 <= 0
 rowB288: x13,8 - y13 <= 0
 rowB289: x13,9 - y13 <= 0
 rowB290: x13,10 - y13 <= 0
 rowB291: x13,11 - y13 <= 0
 rowB292: x13,12 - y13 <= 0
 rowB293: x13,13 - y13 <= 0
 rowB294: x13,14 - y13 <= 0
 rowB295: x13,15 - y13 <= 0
 rowB296: x13,16 - y13 <= 0
 rowB297: x13,17 - y13 <= 0
 rowB298: x13,18 - y13 <= 0
 rowB299: x13,19 - y13 <= 0
 rowB300: x14,0 - y14 <= 0
 rowB301: x14,1 - y14 <= 0
 rowB302: x14,2 - y14 <= 0
 rowB303: x14,3 - y14 <= 0
 rowB304: x14,4 - y14 <= 0
 rowB305: x14,5 - y14 <= 0
 rowB306: x14,6 - y14 <= 0
 rowB307: x14,7 - y14 <= 0
 rowB308: x14,8 - y14 <= 0
 rowB309: x14,9 - y14 <= 0
 rowB310: x14,10 - y14 <= 0
 rowB311: x14,11 - y14 <= 0
 rowB312: x14,12 - y14 <= 0
 rowB313: x14,13 - y14 <= 0
 rowB314: x14,14 - y14 <= 0
 rowB315: x14,15 - y14 <= 0
 rowB316: x14,16 - y14 <= 0
 rowB317: x14,17 - y14 <= 0
 rowB318: x14,18 - y14 <= 0
 rowB319: x14,19 - y14 <= 0
 rowB320: x15,0 - y15 <= 0
 rowB321: x15,1 - y15 <= 0
 rowB322: x15,2 - y15 <= 0
 rowB323: x15,3 - y15 <= 0
 rowB324: x15,4 - y15 <= 0
 rowB325: x15,5 - y15 <= 0
 rowB326: x15,6 - y15 <= 0
 rowB327: x15,7 - y15 <= 0
 rowB328: x15,8 - y15 <= 0
 rowB329: x15,9 - y15 <= 0
 rowB330: x15,10 - y15 <= 0
 rowB331: x15,11 - y15 <= 0
 rowB332: x15,12 - y15 <= 0
 rowB333: x15,13 - y15 <= 0
 rowB334: x15,14 - y15 <= 0
 rowB335: x15,15 - y15 <= 0
 rowB336: x15,16 - y15 <= 0
 rowB337: x15,17 - y15 <= 0
 rowB338: x15,18 - y15 <= 0
 rowB339: x15,19 - y15 <= 0
 rowB340: x16,0 - y16 <= 0
 rowB341: x16,1 - y16 <= 0
 rowB342: x16,2 - y16 <= 0
 rowB343: x16,3 - y16 <= 0
 rowB344: x16,4 - y16 <= 0
 rowB345: x16,5 - y16 <= 0
 rowB346: x16,6 - y16 <= 0
 rowB347: x16,7 - y16 <= 0
 rowB348: x16,8 - y16 <= 0
 rowB349: x16,9 - y16 <= 0
 rowB350: x16,10 - y16 <= 0
 rowB351: x16,11 - y16 <= 0
 rowB352: x16,12 - y16 <= 0
 rowB353: x16,13 - y16 <= 0
 rowB354: x16,14 - y16 <= 0
 rowB355: x16,15 - y16 <= 0
 rowB356: x16,16 - y16 <= 0
 rowB357: x16,17 - y16 <= 0
 rowB358: x16,18 - y16 <= 0
 rowB359: x16,19 - y16 <= 0
 rowB360: x17,0 - y17 <= 0
 rowB361: x17,1 - y17 <= 0
 rowB362: x17,2 - y17 <= 0
 rowB363: x17,3 - y17 <= 0
 rowB364: x17,4 - y17 <= 0
 rowB365: x17,5 - y17 <= 0
 rowB366: x17,6 - y17 <= 0
 rowB367: x17,7 - y17 <= 0
 rowB368: x17,8 - y17 <= 0
 rowB369: x17,9 - y17 <= 0
 rowB370: x17,10 - y17 <= 0
 rowB371: x17,11 - y17 <= 0
 rowB372: x17,12 - y17 <= 0
 rowB373: x17,13 - y17 <= 0
 rowB374: x17,14 - y17 <= 0
 rowB375: x17,15 - y17 <= 0
 rowB376: x17,16 - y17 <= 0
 rowB377: x17,17 - y17 <= 0
 rowB378: x17,18 - y17 <= 0
 rowB379: x17,19 - y17 <= 0
 rowB380: x18,0 - y18 <= 0
 rowB381: x18,1 - y18 <= 0
 rowB382: x18,2 - y18 <= 0
 rowB383: x18,3 - y18 <= 0
 rowB384: x18,4 - y18 <= 0
 rowB385: x18,5 - y18 <= 0
 rowB386: x18,6 - y18 <= 0
 rowB387: x18,7 - y18 <= 0
 rowB388: x18,8 - y18 <= 0
 rowB389: x18,9 - y18 <= 0
 rowB390: x18,10 - y18 <= 0
 rowB391: x18,11 - y18 <= 0
 rowB392: x18,12 - y18 <= 0
 rowB393: x18,13 - y18 <= 0
 rowB394: x18,14 - y18 <= 0
 rowB395: x18,15 - y18 <= 0
 rowB396: x18,16 - y18 <= 0
 rowB397: x18,17 - y18 <= 0
 rowB398: x18,18 - y18 <= 0
 rowB399: x18,19 - y18 <= 0
 rowB400: x19,0 - y19 <= 0
 rowB401: x19,1 - y19 <= 0
 rowB402: x19,2 - y19 <= 0
 rowB403: x19,3 - y19 <= 0
 rowB404: x19,4 - y19 <= 0
 rowB405: x19,5 - y19 <= 0
 rowB406: x19,6 - y19 <= 0
 rowB407: x19,7 - y19 <= 0
 rowB408: x19,8 - y19 <= 0
 rowB409: x19,9 - y19 <= 0
 rowB410: x19,10 - y19 <= 0
 rowB411: x19,11 - y19 <= 0
 rowB412: x19,12 - y19 <= 0
 rowB413: x19,13 - y19 <= 0
 rowB414: x19,14 - y19 <= 0
 rowB415: x19,15 - y19 <= 0
 rowB416: x19,16 - y19 <= 0
 rowB417: x19,17 - y19 <= 0
 rowB418: x19,18 - y19 <= 0
 rowB419: x19,19 - y19 <= 0
 qc0: z0 + [ - y0 * z0 ] = 0
 qc1: z1 + [ - y1 * z1 ] = 0
 qc2: z2 + [ - y2 * z2 ] = 0
 qc3: z3 + [ - y3 * z3 ] = 0
 qc4: z4 + [ - y4 * z4 ] = 0
 qc5: z5 + [ - y5 * z5 ] = 0
 qc6: z6 + [ - y6 * z6 ] = 0
 qc7: z7 + [ - y7 * z7 ] = 0
 qc8: z8 + [ - y8 * z8 ] = 0
 qc9: z9 + [ - y9 * z9 ] = 0
 qc10: z10 + [ - y10 * z10 ] = 0
 qc11: z11 + [ - y11 * z11 ] = 0
 qc12: z12 + [ - y12 * z12 ] = 0
 qc13: z13 + [ - y13 * z13 ] = 0
 qc14: z14 + [ - y14 * z14 ] = 0
 qc15: z15 + [ - y15 * z15 ] = 0
 qc16: z16 + [ - y16 * z16 ] = 0
 qc17: z17 + [ - y17 * z17 ] = 0
 qc18: z18 + [ - y18 * z18 ] = 0
 qc19: z19 + [ - y19 * z19 ] = 0
Bounds
 x0,0 <= 1
 x0,1 <= 1
 x0,2 <= 1
 x0,3 <= 1
 x0,4 <= 1
 x0,5 <= 1
 x0,6 <= 1
 x0,7 <= 1
 x0,8 <= 1
 x0,9 <= 1
 x0,10 <= 1
 x0,11 <= 1
 x0,12 <= 1
 x0,13 <= 1
 x0,14 <= 1
 x0,15 <= 1
 x0,16 <= 1
 x0,17 <= 1
 x0,18 <= 1
 x0,19 <= 1
 x1,0 <= 1
 x1,1 <= 1
 x1,2 <= 1
 x1,3 <= 1
 x1,4 <= 1
 x1,5 <= 1
 x1,6 <= 1
 x1,7 <= 1
 x1,8 <= 1
 x1,9 <= 1
 x1,10 <= 1
 x1,11 <= 1
 x1,12 <= 1
 x1,13 <= 1
 x1,14 <= 1
 x1,15 <= 1
 x1,16 <= 1
 x1,17 <= 1
 x1,18 <= 1
 x1,19 <= 1
 x2,0 <= 1
 x2,1 <= 1
 x2,2 <= 1
 x2,3 <= 1
 x2,4 <= 1
 x2,5 <= 1
 x2,6 <= 1
 x2,7 <= 1
 x2,8 <= 1
 x2,9 <= 1
 x2,10 <= 1
 x2,11 <= 1
 x2,12 <= 1
 x2,13 <= 1
 x2,14 <= 1
 x2,15 <= 1
 x2,16 <= 1
 x2,17 <= 1
 x2,18 <= 1
 x2,19 <= 1
 x3,0 <= 1
 x3,1 <= 1
 x3,2 <= 1
 x3,3 <= 1
 x3,4 <= 1
 x3,5 <= 1
 x3,6 <= 1
 x3,7 <= 1
 x3,8 <= 1
 x3,9 <= 1
 x3,10 <= 1
 x3,11 <= 1
 x3,12 <= 1
 x3,13 <= 1
 x3,14 <= 1
 x3,15 <= 1
 x3,16 <= 1
 x3,17 <= 1
 x3,18 <= 1
 x3,19 <= 1
 x4,0 <= 1
 x4,1 <= 1
 x4,2 <= 1
 x4,3 <= 1
 x4,4 <= 1
 x4,5 <= 1
 x4,6 <= 1
 x4,7 <= 1
 x4,8 <= 1
 x4,9 <= 1
 x4,10 <= 1
 x4,11 <= 1
 x4,12 <= 1
 x4,13 <= 1
 x4,14 <= 1
 x4,15 <= 1
 x4,16 <= 1
 x4,17 <= 1
 x4,18 <= 1
 x4,19 <= 1
 x5,0 <= 1
 x5,1 <= 1
 x5,2 <= 1
 x5,3 <= 1
 x5,4 <= 1
 x5,5 <= 1
 x5,6 <= 1
 x5,7 <= 1
 x5,8 <= 1
 x5,9 <= 1
 x5,10 <= 1
 x5,11 <= 1
 x5,12 <= 1
 x5,13 <= 1
 x5,14 <= 1
 x5,15 <= 1
 x5,16 <= 1
 x5,17 <= 1
 x5,18 <= 1
 x5,19 <= 1
 x6,0 <= 1
 x6,1 <= 1
 x6,2 <= 1
 x6,3 <= 1
 x6,4 <= 1
 x6,5 <= 1
 x6,6 <= 1
 x6,7 <= 1
 x6,8 <= 1
 x6,9 <= 1
 x6,10 <= 1
 x6,11 <= 1
 x6,12 <= 1
 x6,13 <= 1
 x6,14 <= 1
 x6,15 <= 1
 x6,16 <= 1
 x6,17 <= 1
 x6,18 <= 1
 x6,19 <= 1
 x7,0 <= 1
 x7,1 <= 1
 x7,2 <= 1
 x7,3 <= 1
 x7,4 <= 1
 x7,5 <= 1
 x7,6 <= 1
 x7,7 <= 1
 x7,8 <= 1
 x7,9 <= 1
 x7,10 <= 1
 x7,11 <= 1
 x7,12 <= 1
 x7,13 <= 1
 x7,14 <= 1
 x7,15 <= 1
 x7,16 <= 1
 x7,17 <= 1
 x7,18 <= 1
 x7,19 <= 1
 x8,0 <= 1
 x8,1 <= 1
 x8,2 <= 1
 x8,3 <= 1
 x8,4 <= 1
 x8,5 <= 1
 x8,6 <= 1
 x8,7 <= 1
 x8,8 <= 1
 x8,9 <= 1
 x8,10 <= 1
 x8,11 <= 1
 x8,12 <= 1
 x8,13 <= 1
 x8,14 <= 1
 x8,15 <= 1
 x8,16 <= 1
 x8,17 <= 1
 x8,18 <= 1
 x8,19 <= 1
 x9,0 <= 1
 x9,1 <= 1
 x9,2 <= 1
 x9,3 <= 1
 x9,4 <= 1
 x9,5 <= 1
 x9,6 <= 1
 x9,7 <= 1
 x9,8 <= 1
 x9,9 <= 1
 x9,10 <= 1
 x9,11 <= 1
 x9,12 <= 1
 x9,13 <= 1
 x9,14 <= 1
 x9,15 <= 1
 x9,16 <= 1
 x9,17 <= 1
 x9,18 <= 1
 x9,19 <= 1
 x10,0 <= 1
 x10,1 <= 1
 x10,2 <= 1
 x10,3 <= 1
 x10,4 <= 1
 x10,5 <= 1
 x10,6 <= 1
 x10,7 <= 1
 x10,8 <= 1
 x10,9 <= 1
 x10,10 <= 1
 x10,11 <= 1
 x10,12 <= 1
 x10,13 <= 1
 x10,14 <= 1
 x10,15 <= 1
 x10,16 <= 1
 x10,17 <= 1
 x10,18 <= 1
 x10,19 <= 1
 x11,0 <= 1
 x11,1 <= 1
 x11,2 <= 1
 x11,3 <= 1
 x11,4 <= 1
 x11,5 <= 1
 x11,6 <= 1
 x11,7 <= 1
 x11,8 <= 1
 x11,9 <= 1
 x11,10 <= 1
 x11,11 <= 1
 x11,12 <= 1
 x11,13 <= 1
 x11,14 <= 1
 x11,15 <= 1
 x11,16 <= 1
 x11,17 <= 1
 x11,18 <= 1
 x11,19 <= 1
 x12,0 <= 1
 x12,1 <= 1
 x12,2 <= 1
 x12,3 <= 1
 x12,4 <= 1
 x12,5 <= 1
 x12,6 <= 1
 x12,7 <= 1
 x12,8 <= 1
 x12,9 <= 1
 x12,10 <= 1
 x12,11 <= 1
 x12,12 <= 1
 x12,13 <= 1
 x12,14 <= 1
 x12,15 <= 1
 x12,16 <= 1
 x12,17 <= 1
 x12,18 <= 1
 x12,19 <= 1
 x13,0 <= 1
 x13,1 <= 1
 x13,2 <= 1
 x13,3 <= 1
 x13,4 <= 1
 x13,5 <= 1
 x13,6 <= 1
 x13,7 <= 1
 x13,8 <= 1
 x13,9 <= 1
 x13,10 <= 1
 x13,11 <= 1
 x13,12 <= 1
 x13,13 <= 1
 x13,14 <= 1
 x13,15 <= 1
 x13,16 <= 1
 x13,17 <= 1
 x13,18 <= 1
 x13,19 <= 1
 x14,0 <= 1
 x14,1 <= 1
 x14,2 <= 1
 x14,3 <= 1
 x14,4 <= 1
 x14,5 <= 1
 x14,6 <= 1
 x14,7 <= 1
 x14,8 <= 1
 x14,9 <= 1
 x14,10 <= 1
 x14,11 <= 1
 x14,12 <= 1
 x14,13 <= 1
 x14,14 <= 1
 x14,15 <= 1
 x14,16 <= 1
 x14,17 <= 1
 x14,18 <= 1
 x14,19 <= 1
 x15,0 <= 1
 x15,1 <= 1
 x15,2 <= 1
 x15,3 <= 1
 x15,4 <= 1
 x15,5 <= 1
 x15,6 <= 1
 x15,7 <= 1
 x15,8 <= 1
 x15,9 <= 1
 x15,10 <= 1
 x15,11 <= 1
 x15,12 <= 1
 x15,13 <= 1
 x15,14 <= 1
 x15,15 <= 1
 x15,16 <= 1
 x15,17 <= 1
 x15,18 <= 1
 x15,19 <= 1
 x16,0 <= 1
 x16,1 <= 1
 x16,2 <= 1
 x16,3 <= 1
 x16,4 <= 1
 x16,5 <= 1
 x16,6 <= 1
 x16,7 <= 1
 x16,8 <= 1
 x16,9 <= 1
 x16,10 <= 1
 x16,11 <= 1
 x16,12 <= 1
 x16,13 <= 1
 x16,14 <= 1
 x16,15 <= 1
 x16,16 <= 1
 x16,17 <= 1
 x16,18 <= 1
 x16,19 <= 1
 x17,0 <= 1
 x17,1 <= 1
 x17,2 <= 1
 x17,3 <= 1
 x17,4 <= 1
 x17,5 <= 1
 x17,6 <= 1
 x17,7 <= 1
 x17,8 <= 1
 x17,9 <= 1
 x17,10 <= 1
 x17,11 <= 1
 x17,12 <= 1
 x17,13 <= 1
 x17,14 <= 1
 x17,15 <= 1
 x17,16 <= 1
 x17,17 <= 1
 x17,18 <= 1
 x17,19 <= 1
 x18,0 <= 1
 x18,1 <= 1
 x18,2 <= 1
 x18,3 <= 1
 x18,4 <= 1
 x18,5 <= 1
 x18,6 <= 1
 x18,7 <= 1
 x18,8 <= 1
 x18,9 <= 1
 x18,10 <= 1
 x18,11 <= 1
 x18,12 <= 1
 x18,13 <= 1
 x18,14 <= 1
 x18,15 <= 1
 x18,16 <= 1
 x18,17 <= 1
 x18,18 <= 1
 x18,19 <= 1
 x19,0 <= 1
 x19,1 <= 1
 x19,2 <= 1
 x19,3 <= 1
 x19,4 <= 1
 x19,5 <= 1
 x19,6 <= 1
 x19,7 <= 1
 x19,8 <= 1
 x19,9 <= 1
 x19,10 <= 1
 x19,11 <= 1
 x19,12 <= 1
 x19,13 <= 1
 x19,14 <= 1
 x19,15 <= 1
 x19,16 <= 1
 x19,17 <= 1
 x19,18 <= 1
 x19,19 <= 1
Binaries
 y0 y1 y2 y3 y4 y5 y6 y7 y8 y9 y10 y11 y12 y13 y14 y15 y16 y17 y18 y19
End
